CLW03
Position Depot: Random
Horizon for Depot: Large
Position of customers: Cluster
Distribution of the demand: Large
Width of time windows: Wide
Distribution of the service: Small

VEHICLE 
NUMBER 	 CAPACITY 
 8 	 	 666 
 
CUSTOMER
CUST NO. 	 XCOORD.  	 YCOORD. 	 DEMAND 	 READY TIME 	 DUE DATE 	 SERVICE TIME 
 0 	 	 679 	 	 612 	 	 0 	 	 0 	 	 3160 	 	 0 
  1 	 	 9 	 	 17 	 	 77 	 	 1699 	 	 1937 	 	 61 
  2 	 	 137 	 	 520 	 	 73 	 	 2098 	 	 2471 	 	 88 
  3 	 	 109 	 	 944 	 	 96 	 	 1668 	 	 1963 	 	 83 
  4 	 	 489 	 	 719 	 	 74 	 	 1504 	 	 1841 	 	 57 
  5 	 	 580 	 	 258 	 	 24 	 	 1147 	 	 1581 	 	 51 
  6 	 	 189 	 	 102 	 	 21 	 	 1716 	 	 2178 	 	 68 
  7 	 	 247 	 	 344 	 	 64 	 	 245 	 	 559 	 	 53 
  8 	 	 462 	 	 113 	 	 34 	 	 911 	 	 1305 	 	 100 
  9 	 	 244 	 	 274 	 	 98 	 	 2709 	 	 3160 	 	 63 
  10 	 	 238 	 	 537 	 	 41 	 	 90 	 	 492 	 	 93 
  11 	 	 122 	 	 941 	 	 62 	 	 509 	 	 711 	 	 64 
  12 	 	 140 	 	 403 	 	 99 	 	 156 	 	 635 	 	 63 
  13 	 	 126 	 	 991 	 	 87 	 	 1687 	 	 1983 	 	 51 
  14 	 	 597 	 	 191 	 	 25 	 	 2604 	 	 2886 	 	 77 
  15 	 	 108 	 	 530 	 	 64 	 	 2120 	 	 2556 	 	 77 
  16 	 	 24 	 	 908 	 	 3 	 	 326 	 	 800 	 	 63 
  17 	 	 169 	 	 930 	 	 62 	 	 2882 	 	 3160 	 	 100 
  18 	 	 149 	 	 881 	 	 25 	 	 2146 	 	 2468 	 	 64 
  19 	 	 123 	 	 937 	 	 41 	 	 2231 	 	 2688 	 	 88 
  20 	 	 479 	 	 712 	 	 70 	 	 1703 	 	 2104 	 	 67 
  21 	 	 582 	 	 302 	 	 87 	 	 2737 	 	 3160 	 	 51 
  22 	 	 18 	 	 954 	 	 65 	 	 571 	 	 818 	 	 65 
  23 	 	 591 	 	 683 	 	 72 	 	 468 	 	 749 	 	 52 
  24 	 	 498 	 	 659 	 	 76 	 	 -56 	 	 306 	 	 94 
  25 	 	 86 	 	 470 	 	 61 	 	 603 	 	 1083 	 	 91 
  26 	 	 124 	 	 534 	 	 90 	 	 2030 	 	 2407 	 	 77 
  27 	 	 514 	 	 157 	 	 61 	 	 1998 	 	 2447 	 	 56 
  28 	 	 164 	 	 471 	 	 72 	 	 1553 	 	 1937 	 	 97 
  29 	 	 120 	 	 510 	 	 75 	 	 2189 	 	 2454 	 	 92 
  30 	 	 470 	 	 708 	 	 80 	 	 1092 	 	 1382 	 	 75 
  31 	 	 563 	 	 333 	 	 49 	 	 454 	 	 882 	 	 73 
  32 	 	 574 	 	 344 	 	 81 	 	 1877 	 	 2095 	 	 76 
  33 	 	 315 	 	 504 	 	 56 	 	 236 	 	 721 	 	 73 
  34 	 	 784 	 	 282 	 	 38 	 	 417 	 	 647 	 	 68 
  35 	 	 237 	 	 101 	 	 34 	 	 2337 	 	 2637 	 	 100 
  36 	 	 514 	 	 227 	 	 31 	 	 1607 	 	 1870 	 	 54 
  37 	 	 141 	 	 170 	 	 34 	 	 1528 	 	 1762 	 	 95 
  38 	 	 609 	 	 245 	 	 97 	 	 1205 	 	 1484 	 	 85 
  39 	 	 165 	 	 315 	 	 68 	 	 2022 	 	 2448 	 	 67 
  40 	 	 395 	 	 176 	 	 18 	 	 2176 	 	 2642 	 	 76 
  41 	 	 194 	 	 250 	 	 62 	 	 2447 	 	 2855 	 	 99 
  42 	 	 244 	 	 131 	 	 52 	 	 1443 	 	 1714 	 	 85 
  43 	 	 615 	 	 260 	 	 4 	 	 441 	 	 656 	 	 86 
  44 	 	 392 	 	 101 	 	 77 	 	 1584 	 	 1832 	 	 64 
  45 	 	 31 	 	 987 	 	 9 	 	 2724 	 	 3160 	 	 92 
  46 	 	 195 	 	 82 	 	 39 	 	 508 	 	 789 	 	 55 
  47 	 	 573 	 	 34 	 	 57 	 	 1758 	 	 2006 	 	 50 
  48 	 	 572 	 	 24 	 	 83 	 	 1975 	 	 2470 	 	 51 
  49 	 	 443 	 	 2 	 	 46 	 	 2675 	 	 2891 	 	 68 
  50 	 	 146 	 	 436 	 	 6 	 	 2011 	 	 2344 	 	 68 
  51 	 	 504 	 	 715 	 	 92 	 	 135 	 	 456 	 	 84 
  52 	 	 498 	 	 158 	 	 98 	 	 2717 	 	 3160 	 	 80 
  53 	 	 189 	 	 851 	 	 55 	 	 1577 	 	 1848 	 	 96 
  54 	 	 100 	 	 575 	 	 54 	 	 1639 	 	 2079 	 	 99 
  55 	 	 165 	 	 569 	 	 67 	 	 2000 	 	 2444 	 	 87 
  56 	 	 287 	 	 352 	 	 58 	 	 150 	 	 517 	 	 64 
  57 	 	 146 	 	 206 	 	 100 	 	 573 	 	 837 	 	 82 
  58 	 	 106 	 	 118 	 	 26 	 	 528 	 	 832 	 	 55 
  59 	 	 474 	 	 111 	 	 4 	 	 105 	 	 595 	 	 55 
  60 	 	 495 	 	 254 	 	 53 	 	 1147 	 	 1624 	 	 67 
  61 	 	 107 	 	 923 	 	 48 	 	 1447 	 	 1727 	 	 88 
  62 	 	 387 	 	 741 	 	 22 	 	 1780 	 	 2256 	 	 72 
  63 	 	 547 	 	 274 	 	 83 	 	 397 	 	 710 	 	 53 
  64 	 	 112 	 	 962 	 	 1 	 	 2451 	 	 2831 	 	 89 
  65 	 	 91 	 	 568 	 	 59 	 	 2027 	 	 2378 	 	 89 
  66 	 	 140 	 	 511 	 	 26 	 	 1291 	 	 1644 	 	 51 
  67 	 	 667 	 	 357 	 	 46 	 	 450 	 	 662 	 	 58 
  68 	 	 119 	 	 487 	 	 85 	 	 1559 	 	 1795 	 	 85 
  69 	 	 28 	 	 562 	 	 87 	 	 2197 	 	 2505 	 	 61 
  70 	 	 585 	 	 262 	 	 2 	 	 187 	 	 608 	 	 77 
  71 	 	 486 	 	 718 	 	 52 	 	 2492 	 	 2895 	 	 57 
  72 	 	 266 	 	 463 	 	 74 	 	 836 	 	 1233 	 	 63 
  73 	 	 286 	 	 134 	 	 5 	 	 245 	 	 691 	 	 82 
  74 	 	 240 	 	 928 	 	 76 	 	 2301 	 	 2716 	 	 72 
  75 	 	 150 	 	 241 	 	 22 	 	 232 	 	 710 	 	 58 
  76 	 	 232 	 	 312 	 	 79 	 	 2365 	 	 2851 	 	 89 
  77 	 	 430 	 	 233 	 	 56 	 	 235 	 	 498 	 	 62 
  78 	 	 608 	 	 237 	 	 27 	 	 711 	 	 1124 	 	 89 
  79 	 	 41 	 	 439 	 	 74 	 	 355 	 	 727 	 	 51 
  80 	 	 162 	 	 985 	 	 75 	 	 577 	 	 1028 	 	 81 
  81 	 	 498 	 	 706 	 	 91 	 	 1332 	 	 1801 	 	 62 
  82 	 	 490 	 	 184 	 	 57 	 	 2788 	 	 3079 	 	 85 
  83 	 	 263 	 	 365 	 	 42 	 	 1313 	 	 1733 	 	 92 
  84 	 	 511 	 	 754 	 	 21 	 	 2413 	 	 2637 	 	 66 
  85 	 	 654 	 	 320 	 	 85 	 	 1411 	 	 1675 	 	 75 
  86 	 	 30 	 	 48 	 	 66 	 	 1498 	 	 1818 	 	 50 
  87 	 	 167 	 	 459 	 	 53 	 	 2483 	 	 2740 	 	 68 
  88 	 	 151 	 	 536 	 	 27 	 	 2093 	 	 2331 	 	 78 
  89 	 	 662 	 	 323 	 	 98 	 	 391 	 	 726 	 	 60 
  90 	 	 107 	 	 969 	 	 32 	 	 1836 	 	 2186 	 	 62 
  91 	 	 283 	 	 157 	 	 77 	 	 1811 	 	 2177 	 	 59 
  92 	 	 126 	 	 967 	 	 27 	 	 1343 	 	 1716 	 	 50 
  93 	 	 362 	 	 551 	 	 92 	 	 1861 	 	 2181 	 	 54 
  94 	 	 216 	 	 369 	 	 46 	 	 303 	 	 661 	 	 97 
  95 	 	 446 	 	 118 	 	 30 	 	 1736 	 	 2191 	 	 65 
  96 	 	 245 	 	 441 	 	 4 	 	 1623 	 	 2120 	 	 68 
  97 	 	 12 	 	 4 	 	 36 	 	 946 	 	 1366 	 	 53 
  98 	 	 218 	 	 78 	 	 69 	 	 2028 	 	 2464 	 	 65 
  99 	 	 243 	 	 388 	 	 82 	 	 1534 	 	 1844 	 	 52 
  100 	 	 448 	 	 831 	 	 81 	 	 -80 	 	 350 	 	 69 
 